p cnf 50 174
-3 1 0
-3 2 0
-1 -2 3 0
-5 -3 -6 0
5 3 -6 0
-5 3 6 0
5 -3 6 0
7 2 0
7 6 0
-2 -6 -7 0
4 7 -8 0
-4 -7 -8 0
4 -7 8 0
-4 7 8 0
-10 9 0
-10 -4 0
-9 4 10 0
8 10 -11 0
-8 -10 -11 0
8 -10 11 0
-8 10 11 0
12 -11 0
12 6 0
11 -6 -12 0
-3 12 -13 0
3 -12 -13 0
-3 -12 13 0
3 12 13 0
15 -14 0
15 -9 0
14 9 -15 0
-16 14 0
-16 14 0
-14 16 0
17 10 0
17 16 0
-10 -16 -17 0
15 17 -18 0
-15 -17 -18 0
15 -17 18 0
-15 17 18 0
5 6 -19 0
-5 -6 -19 0
5 -6 19 0
-5 6 19 0
21 -20 0
21 -7 0
20 7 -21 0
21 8 -22 0
-21 -8 -22 0
21 -8 22 0
-21 8 22 0
-23 19 0
-23 -22 0
-19 22 23 0
14 24 0
-14 24 0
25 4 0
25 24 0
-4 -24 -25 0
26 11 0
26 -3 0
-11 3 -26 0
-25 26 -27 0
25 -26 -27 0
-25 -26 27 0
25 26 27 0
23 -27 -28 0
-23 27 -28 0
23 27 28 0
-23 -27 28 0
29 -18 0
29 28 0
18 -28 -29 0
-2 3 -30 0
2 -3 -30 0
-2 -3 30 0
2 3 30 0
31 24 0
31 30 0
-24 -30 -31 0
32 29 0
32 -31 0
-29 31 -32 0
-14 33 -34 0
14 -33 -34 0
-14 -33 34 0
14 33 34 0
-36 -22 0
-36 -35 0
22 35 36 0
-38 37 0
-38 -8 0
-37 8 38 0
39 -1 0
39 -5 0
1 5 -39 0
40 -38 0
40 39 0
38 -39 -40 0
-36 40 -41 0
36 -40 -41 0
-36 -40 41 0
36 40 41 0
42 -34 0
42 41 0
34 -41 -42 0
-5 30 -43 0
5 -30 -43 0
-5 -30 43 0
5 30 43 0
-44 8 0
-44 -22 0
-8 22 44 0
-45 -43 0
-45 44 0
43 -44 45 0
-9 6 -46 0
9 -6 -46 0
-9 -6 46 0
9 6 46 0
47 -45 0
47 46 0
45 -46 -47 0
48 -42 0
48 -47 0
42 47 -48 0
49 32 0
49 -48 0
-32 48 -49 0
50 -13 0
50 49 0
13 -49 -50 0
-30 -47 5 -45 0
-40 -16 6 25 0
31 7 49 -21 -41 0
-11 -19 15 -13 -35 1 0
-49 -40 7 -48 45 -37 0
-18 -49 -20 -11 0
-22 -9 26 -27 0
-2 12 40 -31 6 0
-25 37 -15 -21 0
30 -46 44 -16 -50 0
47 16 0
19 39 46 49 25 0
42 -40 0
-27 25 0
-8 21 0
44 -18 45 -16 0
-46 -37 -45 43 -29 19 0
21 10 0
-37 15 -7 27 -47 0
21 30 -26 0
22 -27 -35 -49 -18 0
-16 35 6 -25 0
33 -49 -37 -48 41 -4 0
22 42 30 0
5 -9 1 21 0
5 40 10 -31 11 48 0
30 -23 -36 0
-40 50 -15 -34 31 9 0
-31 30 -35 28 0
39 31 -26 -23 0
-44 19 -3 -13 -2 -48 0
-30 15 47 -24 0
6 23 -2 -17 0
-31 33 9 21 0
-17 38 -7 0
-9 -38 -11 0
-33 14 37 -11 -10 -35 0
-15 -5 -37 -26 25 0
17 -9 -39 8 -15 0
-32 -28 22 0
50 0
